5 5
1 98 2 22 4 20 0 47 3 77
1 34 2 44 3 6 0 56 4 29
4 97 0 53 1 1 3 59 2 48
3 7 1 86 0 32 4 78 2 61
3 57 0 51 1 88 4 19 2 27
-1
0 3 5
0 1 2 4 5
0 2 4 5
0 2 5
0 3 5
-2
203 304
42 106 163 245
199 269 317
137 337
243 256

385 9
21 17 11 8 3
5 16 0 12 22
6 1 19 14 24
15 20 7 13 4
10 18 2 9 23
